6 6 141
5 5 1 3 1 3 2 6 3 6 4 3 23 23 43 43 87 87 119 119 139 
5 1 1 2 1 1 2 5 3 5 4 4 28 28 52 52 88 88 120 120 136 
5 4 1 5 2 4 2 3 3 4 3 14 36 36 62 62 104 104 122 122 140 
5 6 1 6 2 2 2 2 3 1 3 15 33 33 59 59 97 97 119 119 141 
8 5 1 4 1 4 1 2 1 2 1 2 2 6 3 3 3 0 3 3 9 9 14 14 18 18 22 52 56 59 64 87 91 
8 1 1 6 1 6 1 3 1 3 1 5 2 5 3 1 3 0 4 4 9 9 15 15 18 18 21 23 27 62 65 88 92 
